AuLoKomp_MIP_Pinning/model/BS4_1_pinning_not_possible.mps
NAME (null)_copy
ROWS
 N  OBJ
 E  c0      
 E  c1      
 E  c2      
 E  c3      
 E  c4      
 E  c5      
 E  c6      
 L  c7      
 L  c8      
 L  c9      
 L  c10     
 L  c11     
 L  c12     
 E  c13     
 E  c14     
 E  c15     
 E  c16     
 L  c17     
 L  c18     
 L  c19     
 L  c20     
 L  c21     
 L  c22     
 L  c23     
 L  c24     
 L  c25     
 L  c26     
 L  c27     
 L  c28     
 L  c29     
 L  c30     
 L  c31     
 L  c32     
 L  c33     
 L  c34     
 L  c35     
 L  c36     
 L  c37     
 L  c38     
 L  c39     
 L  c40     
 L  c41     
 L  c42     
 L  c43     
 L  c44     
 L  c45     
 L  c46     
 L  c47     
 L  c48     
 L  c49     
 L  c50     
 L  c51     
 L  c52     
 L  c53     
 L  c54     
 L  c55     
 L  c56     
 L  c57     
 L  c58     
 L  c59     
 L  c60     
 L  c61     
 L  c62     
 L  c63     
 L  c64     
 L  c65     
 L  c66     
 L  c67     
 L  c68     
 L  c69     
 L  c70     
 L  c71     
 L  c72     
COLUMNS
    MARKER    'MARKER'                 'INTORG'
    x[0,0,0]  c0        1
    x[0,0,0]  c2        -1
    x[0,0,0]  c7        1
    x[0,0,0]  c17       4
    x[0,0,0]  c23       4
    x[0,0,0]  c48       -1
    x[0,0,0]  c53       1
    x[0,0,0]  c61       1
    x[0,0,0]  c69       -1
    x[0,0,0]  c72       -1
    x[0,0,1]  c0        1
    x[0,0,1]  c8        1
    x[0,0,1]  c18       4
    x[0,0,1]  c26       4
    x[0,0,1]  c51       -1
    x[0,0,1]  c56       1
    x[0,0,1]  c64       1
    x[0,0,1]  c72       -1
    x[0,1,0]  c0        1
    x[0,1,0]  c2        -1
    x[0,1,0]  c9        1
    x[0,1,0]  c19       4
    x[0,1,0]  c24       4
    x[0,1,0]  c35       -1
    x[0,1,0]  c49       -1
    x[0,1,0]  c54       1
    x[0,1,0]  c62       1
    x[0,1,0]  c69       -1
    x[0,1,0]  c72       -1
    x[0,1,1]  c0        1
    x[0,1,1]  c10       1
    x[0,1,1]  c20       4
    x[0,1,1]  c27       4
    x[0,1,1]  c38       -1
    x[0,1,1]  c52       -1
    x[0,1,1]  c57       1
    x[0,1,1]  c65       1
    x[0,1,1]  c72       -1
    x[1,0,0]  c1        1
    x[1,0,0]  c2        -1
    x[1,0,0]  c5        1
    x[1,0,0]  c11       1
    x[1,0,0]  c21       4
    x[1,0,0]  c25       4
    x[1,0,0]  c36       -1
    x[1,0,0]  c55       1
    x[1,0,0]  c63       1
    x[1,0,1]  c1        1
    x[1,0,1]  c12       1
    x[1,0,1]  c22       4
    x[1,0,1]  c28       4
    x[1,0,1]  c39       -1
    x[1,0,1]  c58       1
    x[1,0,1]  c66       1
    y[0,0,0]  c29       -1
    y[0,0,0]  c42       -1
    y[0,0,0]  c59       1
    y[0,0,0]  c61       -1
    y[0,0,0]  c62       -1
    y[0,0,0]  c63       -1
    y[0,0,0]  c67       1
    y[0,0,1]  c32       -1
    y[0,0,1]  c45       -1
    y[0,0,1]  c60       1
    y[0,0,1]  c64       -1
    y[0,0,1]  c65       -1
    y[0,0,1]  c66       -1
    y[0,0,1]  c70       1
    y[0,1,0]  c30       -1
    y[0,1,0]  c43       -1
    y[0,1,0]  c59       1
    y[0,1,0]  c61       -1
    y[0,1,0]  c62       -1
    y[0,1,0]  c63       -1
    y[0,1,0]  c68       2
    y[0,1,1]  c33       -1
    y[0,1,1]  c46       -1
    y[0,1,1]  c60       1
    y[0,1,1]  c64       -1
    y[0,1,1]  c65       -1
    y[0,1,1]  c66       -1
    y[0,1,1]  c71       2
    y[1,0,0]  c31       -1
    y[1,0,0]  c59       1
    y[1,0,0]  c61       -1
    y[1,0,0]  c62       -1
    y[1,0,0]  c63       -1
    y[1,0,0]  c69       3
    y[1,0,1]  c34       -1
    y[1,0,1]  c60       1
    y[1,0,1]  c64       -1
    y[1,0,1]  c65       -1
    y[1,0,1]  c66       -1
    y[1,0,1]  c72       3
    z1[0,0,0]  c29       1
    z1[0,0,0]  c53       -1
    z2[0,0,0]  c35       6
    z2[0,0,0]  c53       -1
    z3[0,0,0]  c41       1
    z3[0,0,0]  c53       -1
    z3[0,0,0]  c67       1
    z3[0,0,0]  c68       1
    z3[0,0,0]  c69       1
    z4[0,0,0]  c47       1
    z4[0,0,0]  c53       -1
    z4[0,0,0]  c67       1
    z4[0,0,0]  c68       1
    z4[0,0,0]  c69       1
    z1[0,0,1]  c32       1
    z1[0,0,1]  c56       -1
    z2[0,0,1]  c38       6
    z2[0,0,1]  c56       -1
    z3[0,0,1]  c44       1
    z3[0,0,1]  c56       -1
    z3[0,0,1]  c70       1
    z3[0,0,1]  c71       1
    z3[0,0,1]  c72       1
    z4[0,0,1]  c50       1
    z4[0,0,1]  c56       -1
    z4[0,0,1]  c70       1
    z4[0,0,1]  c71       1
    z4[0,0,1]  c72       1
    z1[0,1,0]  c30       1
    z1[0,1,0]  c54       -1
    z2[0,1,0]  c36       6
    z2[0,1,0]  c54       -1
    z3[0,1,0]  c35       1
    z3[0,1,0]  c42       1
    z3[0,1,0]  c54       -1
    z3[0,1,0]  c67       1
    z3[0,1,0]  c68       1
    z3[0,1,0]  c69       1
    z4[0,1,0]  c35       1
    z4[0,1,0]  c48       1
    z4[0,1,0]  c54       -1
    z4[0,1,0]  c67       1
    z4[0,1,0]  c68       1
    z4[0,1,0]  c69       1
    z1[0,1,1]  c33       1
    z1[0,1,1]  c57       -1
    z2[0,1,1]  c39       6
    z2[0,1,1]  c57       -1
    z3[0,1,1]  c38       1
    z3[0,1,1]  c45       1
    z3[0,1,1]  c57       -1
    z3[0,1,1]  c70       1
    z3[0,1,1]  c71       1
    z3[0,1,1]  c72       1
    z4[0,1,1]  c38       1
    z4[0,1,1]  c51       1
    z4[0,1,1]  c57       -1
    z4[0,1,1]  c70       1
    z4[0,1,1]  c71       1
    z4[0,1,1]  c72       1
    z1[1,0,0]  c31       1
    z1[1,0,0]  c55       -1
    z2[1,0,0]  c37       6
    z2[1,0,0]  c55       -1
    z3[1,0,0]  c36       1
    z3[1,0,0]  c43       1
    z3[1,0,0]  c55       -1
    z3[1,0,0]  c67       1
    z3[1,0,0]  c68       1
    z3[1,0,0]  c69       1
    z4[1,0,0]  c36       1
    z4[1,0,0]  c49       1
    z4[1,0,0]  c55       -1
    z4[1,0,0]  c67       1
    z4[1,0,0]  c68       1
    z4[1,0,0]  c69       1
    z1[1,0,1]  c34       1
    z1[1,0,1]  c58       -1
    z2[1,0,1]  c40       6
    z2[1,0,1]  c58       -1
    z3[1,0,1]  c39       1
    z3[1,0,1]  c46       1
    z3[1,0,1]  c58       -1
    z3[1,0,1]  c70       1
    z3[1,0,1]  c71       1
    z3[1,0,1]  c72       1
    z4[1,0,1]  c39       1
    z4[1,0,1]  c52       1
    z4[1,0,1]  c58       -1
    z4[1,0,1]  c70       1
    z4[1,0,1]  c71       1
    z4[1,0,1]  c72       1
    u[0,0,0]  c7        -1
    u[0,0,0]  c13       1
    u[0,0,1]  c8        -1
    u[0,0,1]  c15       1
    u[0,1,0]  c3        -1
    u[0,1,0]  c9        -1
    u[0,1,0]  c13       1
    u[0,1,1]  c5        -1
    u[0,1,1]  c10       -1
    u[0,1,1]  c15       1
    u[1,0,0]  c11       -1
    u[1,0,0]  c14       1
    u[1,0,1]  c12       -1
    u[1,0,1]  c16       1
    MARKER    'MARKER'                 'INTEND'
    h[0,0]    c2        1
    h[0,0]    c23       -1
    h[0,0]    c24       -1
    h[0,0]    c25       -1
    h[0,1]    c2        -1
    h[0,1]    c26       -1
    h[0,1]    c27       -1
    h[0,1]    c28       -1
    e[0]      OBJ       1
    e[0]      c67       -1
    e[0]      c68       -1
    e[0]      c69       -1
    e[1]      OBJ       1
    e[1]      c70       -1
    e[1]      c71       -1
    e[1]      c72       -1
RHS
    RHS1      c0        1
    RHS1      c1        1
    RHS1      c13       1
    RHS1      c14       1
    RHS1      c15       1
    RHS1      c16       1
    RHS1      c17       1001
    RHS1      c18       1001
    RHS1      c19       1002
    RHS1      c20       1002
    RHS1      c21       1003
    RHS1      c22       1003
    RHS1      c23       1
    RHS1      c24       2
    RHS1      c25       3
    RHS1      c26       1
    RHS1      c27       2
    RHS1      c28       3
    RHS1      c35       5
    RHS1      c36       5
    RHS1      c37       5
    RHS1      c38       5
    RHS1      c39       5
    RHS1      c40       5
    RHS1      c59       1
    RHS1      c60       1
    RHS1      c67       1
    RHS1      c68       1
    RHS1      c69       1
    RHS1      c70       1
    RHS1      c71       1
    RHS1      c72       1
BOUNDS
 BV BND1      x[0,0,0]
 BV BND1      x[0,0,1]
 BV BND1      x[0,1,0]
 BV BND1      x[0,1,1]
 BV BND1      x[1,0,0]
 BV BND1      x[1,0,1]
 BV BND1      y[0,0,0]
 BV BND1      y[0,0,1]
 BV BND1      y[0,1,0]
 BV BND1      y[0,1,1]
 BV BND1      y[1,0,0]
 BV BND1      y[1,0,1]
 BV BND1      z1[0,0,0]
 BV BND1      z2[0,0,0]
 BV BND1      z3[0,0,0]
 BV BND1      z4[0,0,0]
 BV BND1      z1[0,0,1]
 BV BND1      z2[0,0,1]
 BV BND1      z3[0,0,1]
 BV BND1      z4[0,0,1]
 BV BND1      z1[0,1,0]
 BV BND1      z2[0,1,0]
 BV BND1      z3[0,1,0]
 BV BND1      z4[0,1,0]
 BV BND1      z1[0,1,1]
 BV BND1      z2[0,1,1]
 BV BND1      z3[0,1,1]
 BV BND1      z4[0,1,1]
 BV BND1      z1[1,0,0]
 BV BND1      z2[1,0,0]
 BV BND1      z3[1,0,0]
 BV BND1      z4[1,0,0]
 BV BND1      z1[1,0,1]
 BV BND1      z2[1,0,1]
 BV BND1      z3[1,0,1]
 BV BND1      z4[1,0,1]
 BV BND1      u[0,0,0]
 BV BND1      u[0,0,1]
 BV BND1      u[0,1,0]
 BV BND1      u[0,1,1]
 BV BND1      u[1,0,0]
 BV BND1      u[1,0,1]
 FX BND1      h[0,0]    4
 UP BND1      h[0,1]    4
 UP BND1      e[0]      24
 UP BND1      e[1]      24
ENDATA
